TCS_Benchmarks/redos_fix/regexlib2_output_distinct_833_832_8_0.txt
(\d{1,4})(\d{4})
(\d{1,4})(([\-\s+.]?\(?\d{3}\)?)?([\-\s.]?\d{3})[\-\s.]?)(\d{4})